p wcnf 180 212 213 
1 26 151 0 
1 -132 72 0 
1 -74 91 0 
1 -125 176 0 
1 -17 -88 0 
1 48 138 0 
1 -3 176 0 
1 -5 -69 0 
1 45 -22 0 
1 112 150 0 
1 -19 57 0 
1 92 71 0 
1 154 -37 0 
1 63 -147 0 
1 -161 155 0 
1 -171 -153 0 
1 146 112 0 
1 106 140 0 
1 60 -85 0 
1 -121 -39 0 
1 137 -81 0 
1 112 95 0 
1 20 103 0 
1 78 -141 0 
1 139 -113 0 
1 -174 -162 0 
1 67 -93 0 
1 36 28 0 
1 -114 -67 0 
1 -170 -85 0 
1 66 64 0 
1 -53 152 0 
1 -11 67 0 
1 -162 -112 0 
1 105 -116 0 
1 -22 -69 0 
1 -86 125 0 
1 2 -71 0 
1 -28 -56 0 
1 -60 43 0 
1 93 -101 0 
1 -158 112 0 
1 -152 36 0 
1 29 64 0 
1 157 24 0 
1 -16 69 0 
1 55 -153 0 
1 -131 -86 0 
1 126 57 0 
1 -60 -176 0 
1 -56 -14 0 
1 -88 -94 0 
1 -10 -49 0 
1 -167 132 0 
1 143 176 0 
1 39 71 0 
1 89 -115 0 
1 146 45 0 
1 70 140 0 
1 -147 93 0 
1 23 57 0 
1 47 -170 0 
1 -34 166 0 
1 14 -142 0 
1 138 62 0 
1 78 139 0 
1 -72 -81 0 
1 -133 72 0 
1 75 36 0 
1 -57 -180 0 
1 65 -67 0 
1 -156 -6 0 
1 -106 46 0 
1 -115 -118 0 
1 167 34 0 
1 175 -68 0 
1 147 -84 0 
1 -54 118 0 
1 139 -4 0 
1 6 50 0 
1 107 -65 0 
1 41 13 0 
1 -121 -151 0 
1 153 63 0 
1 153 -114 0 
1 -86 -5 0 
1 43 104 0 
1 -90 26 0 
1 92 53 0 
1 -119 73 0 
1 -150 151 0 
1 144 164 0 
1 -150 75 0 
1 32 -92 0 
1 85 -47 0 
1 59 -60 0 
1 -89 -34 0 
1 41 155 0 
1 -28 -151 0 
1 -74 -86 0 
1 40 41 0 
1 -75 157 0 
1 93 -174 0 
1 36 51 0 
1 105 -113 0 
1 121 -64 0 
1 -153 -5 0 
1 53 99 0 
1 -133 -152 0 
1 19 55 0 
1 -106 128 0 
1 168 -88 0 
1 -90 53 0 
1 65 -147 0 
1 -83 27 0 
1 -65 30 0 
1 102 98 0 
1 -31 -130 0 
1 -161 180 0 
1 -158 173 0 
1 150 -68 0 
1 62 -113 0 
1 -97 59 0 
1 3 -145 0 
1 166 -162 0 
1 88 180 0 
1 32 -167 0 
1 -31 160 0 
1 142 -21 0 
1 31 -27 0 
1 -165 74 0 
1 93 58 0 
1 85 -58 0 
1 -4 -78 0 
1 -170 71 0 
1 -103 70 0 
1 -106 137 0 
1 108 151 0 
1 34 -138 0 
1 90 119 0 
1 163 -99 0 
1 173 92 0 
1 178 -167 0 
1 -15 -17 0 
1 -26 85 0 
1 -34 5 0 
1 -127 -179 0 
1 -104 46 0 
1 -86 -20 0 
1 64 180 0 
1 11 -12 0 
1 117 126 0 
1 -49 156 0 
1 -178 33 0 
1 -134 -55 0 
1 88 167 0 
1 -20 53 0 
1 11 180 0 
1 65 139 0 
1 107 158 0 
1 -144 -7 0 
1 -93 -164 0 
1 -18 -19 0 
1 58 -150 0 
1 -41 98 0 
1 64 -103 0 
1 44 8 0 
1 45 51 0 
1 140 -13 0 
1 -146 -58 0 
1 -118 -146 0 
1 -7 163 0 
1 170 45 0 
1 89 88 0 
1 71 62 0 
1 -74 31 0 
1 -175 -157 0 
1 167 -44 0 
1 -93 -45 0 
1 -78 -70 0 
1 -119 -40 0 
1 -132 -93 0 
1 -179 -150 0 
1 -103 159 0 
1 68 117 0 
1 -153 -82 0 
1 -153 131 0 
1 -167 120 0 
1 119 -174 0 
1 8 160 0 
1 -165 175 0 
1 127 13 0 
1 119 -13 0 
1 -32 -87 0 
1 -13 -84 0 
1 111 -165 0 
1 -45 51 0 
1 133 -20 0 
1 60 161 0 
1 -5 -81 0 
1 -97 -46 0 
1 28 179 0 
1 -61 -163 0 
1 -67 -85 0 
1 -105 58 0 
1 171 34 0 
1 -168 21 0 
1 67 -6 0 
1 -48 160 0 
1 174 -14 0 
1 24 -152 0 
1 110 -36 0 
